experiments/sat_smt/run/sat-r/results/julian.res
solved=true
solvingTime=222.6273956298828125
nActions=13