experiments/sat_smt/run/sat-r/results/julian.out
Timesteps: 1
s UNSATISFIABLE
real 0.27
user 0.03
sys 0.01
Timesteps: 2
s UNSATISFIABLE
real 0.31
user 0.07
sys 0.01
Timesteps: 3
s UNSATISFIABLE
real 0.33
user 0.17
sys 0.01
Timesteps: 4
s UNSATISFIABLE
real 0.60
user 0.41
sys 0.02
Timesteps: 5
s UNSATISFIABLE
real 1.04
user 0.79
sys 0.02
Timesteps: 6
s UNSATISFIABLE
real 2.22
user 1.92
sys 0.03
Timesteps: 7
s UNSATISFIABLE
real 8.63
user 7.79
sys 0.04
Timesteps: 8
s UNSATISFIABLE
real 10.55
user 9.60
sys 0.04
Timesteps: 9
s UNSATISFIABLE
real 17.58
user 16.48
sys 0.06
Timesteps: 10
s UNSATISFIABLE
real 27.88
user 26.61
sys 0.08
Timesteps: 11
s UNSATISFIABLE
real 37.66
user 36.23
sys 0.10
Timesteps: 12
s UNSATISFIABLE
real 54.08
user 52.43
sys 0.14
Timesteps: 13
s SATISFIABLE
real 66.35
user 64.59
sys 0.15
